HUN,8,6,421
2,16,0,2,4,1,1,26,5,25,3,4
0,24,1,20,4,10,2,24,5,1,3,17
4,5,5,21,1,7,0,26,3,26,2,3
4,3,3,3,0,1,2,20,1,24,5,24
2,28,5,2,4,28,3,16,0,22,1,28
3,1,0,17,2,21,5,28,4,19,1,21
4,6,5,15,1,1,3,27,2,17,0,26
0,7,1,18,5,29,4,10,2,13,3,19
